% seed = 0

mint = 38;
% maxt = 254;

nActs = 92;
dur = [0,1,3,5,2,1,3,3,4,5,1,3,3,5,3,1,6,4,4,3,1,4,6,2,3,2,2,1,3,4,3,2,3,2,5,1,3,2,2,3,4,3,1,3,3,1,5,2,3,4,1,3,3,2,4,5,2,2,4,1,2,4,5,3,4,3,2,4,3,3,3,4,1,3,3,2,5,1,3,1,3,2,2,3,2,2,2,2,2,1,4,0];

nSkills = 15;
sreq = [| 0,0,0,0,0,0,0,0,0,0,0,0,0,0,0,
	| 0,0,0,0,1,2,0,0,0,0,1,0,0,2,1,
	| 0,0,0,1,0,0,0,0,1,0,1,0,0,0,0,
	| 0,0,1,0,0,0,1,0,3,0,0,0,1,0,0,
	| 0,0,0,0,0,0,0,0,1,0,0,0,0,1,0,
	| 0,0,0,1,0,0,0,0,1,0,0,1,1,1,0,
	| 0,0,0,1,0,0,0,0,0,0,0,0,0,0,0,
	| 0,0,0,0,0,0,0,1,0,0,0,0,0,1,0,
	| 0,0,0,0,0,0,0,0,0,0,0,0,1,0,0,
	| 0,0,0,0,0,1,0,1,0,1,0,0,1,0,0,
	| 0,0,0,0,0,1,0,0,0,0,1,1,0,1,0,
	| 0,0,1,0,0,0,0,0,1,0,1,1,0,1,0,
	| 0,1,0,0,0,1,0,1,1,0,0,1,0,0,1,
	| 0,0,0,0,1,1,0,0,1,0,0,0,0,0,0,
	| 0,0,0,0,0,0,0,0,1,0,0,0,0,0,0,
	| 0,0,1,0,1,1,0,1,0,1,1,0,0,0,0,
	| 0,0,0,0,0,1,0,0,0,0,0,2,0,0,0,
	| 0,0,0,0,0,0,0,0,0,0,0,1,0,1,0,
	| 0,0,1,0,0,0,1,0,1,0,0,2,0,0,0,
	| 0,0,0,0,0,0,0,0,1,0,2,0,1,0,0,
	| 0,0,1,0,0,0,1,1,1,1,0,1,0,1,0,
	| 0,0,0,0,0,1,1,0,1,0,0,0,0,0,0,
	| 0,0,0,0,0,1,0,0,2,0,0,1,0,0,0,
	| 0,0,0,0,0,1,0,3,0,1,0,0,0,0,0,
	| 1,0,1,0,0,0,1,2,0,1,0,0,0,1,0,
	| 0,0,1,0,0,0,0,1,1,0,0,1,0,0,1,
	| 0,0,0,0,0,0,2,0,0,0,1,1,0,1,0,
	| 0,0,1,0,0,1,0,0,0,0,0,1,0,0,1,
	| 0,1,0,1,0,0,0,1,1,0,0,1,0,1,1,
	| 0,1,0,0,0,1,0,2,0,0,0,0,0,0,0,
	| 0,2,0,1,0,0,0,0,0,1,0,0,0,0,0,
	| 0,1,0,0,0,0,0,0,1,0,0,0,0,0,1,
	| 0,0,0,0,0,0,0,0,1,0,0,2,0,0,0,
	| 1,0,0,0,0,1,0,1,1,0,0,0,0,0,1,
	| 0,1,1,0,0,0,0,0,0,0,0,0,1,0,0,
	| 0,0,1,0,0,0,1,0,1,0,1,1,0,0,0,
	| 0,1,0,0,0,1,0,0,0,0,0,0,0,0,1,
	| 0,0,0,0,0,0,0,1,2,0,0,3,0,0,0,
	| 0,0,0,0,0,0,0,0,1,0,0,2,0,0,0,
	| 0,0,0,0,0,0,0,0,0,0,0,1,0,0,0,
	| 0,0,0,0,0,2,0,0,1,0,0,0,0,1,1,
	| 0,0,0,0,0,0,0,0,0,0,0,0,0,0,1,
	| 0,0,0,0,1,0,0,1,0,0,0,0,0,0,0,
	| 0,0,1,0,0,0,1,1,0,0,1,2,0,1,0,
	| 0,0,0,0,0,0,0,1,0,0,0,0,0,0,0,
	| 0,1,0,0,0,0,1,2,1,0,2,0,0,0,0,
	| 0,0,1,0,0,0,0,0,1,0,0,2,1,0,0,
	| 0,0,0,0,1,1,1,0,2,0,0,2,0,0,0,
	| 0,0,0,1,0,1,0,0,1,0,0,1,1,0,1,
	| 0,0,0,0,0,0,1,1,3,0,0,0,0,1,1,
	| 0,0,0,0,0,0,0,0,2,0,0,1,0,1,0,
	| 0,0,1,0,0,0,0,1,1,0,0,1,0,0,0,
	| 0,0,0,0,0,1,1,2,0,1,0,1,0,0,0,
	| 0,0,0,0,0,1,0,1,1,1,0,1,0,0,0,
	| 0,0,0,0,1,0,0,0,2,0,1,1,1,1,0,
	| 0,0,2,0,0,2,0,0,0,0,0,0,1,0,0,
	| 0,0,1,0,0,0,0,1,0,0,0,3,0,0,0,
	| 0,0,0,0,0,0,0,0,1,0,0,0,0,0,1,
	| 0,1,1,0,0,1,0,0,1,0,0,0,0,0,0,
	| 0,0,0,0,0,0,0,1,0,0,0,1,0,0,0,
	| 0,0,1,0,1,0,0,1,1,0,0,1,1,0,1,
	| 0,0,1,0,0,0,2,0,1,0,0,2,0,0,0,
	| 0,0,0,0,0,0,0,0,0,1,0,1,0,1,0,
	| 0,0,0,0,0,0,0,0,3,0,0,0,0,0,1,
	| 0,0,1,0,0,0,0,1,0,1,0,0,1,0,0,
	| 0,1,0,0,0,0,0,0,1,0,0,4,0,0,1,
	| 0,1,0,0,0,1,0,0,3,0,1,1,0,0,0,
	| 0,0,0,0,0,1,0,0,1,0,0,0,0,0,0,
	| 0,0,0,0,0,0,0,1,1,0,0,1,1,0,1,
	| 0,1,1,0,0,0,0,0,0,0,0,0,0,0,0,
	| 0,0,2,0,0,0,0,0,1,0,0,2,0,1,0,
	| 0,0,0,0,0,0,1,0,2,0,0,0,0,1,0,
	| 0,0,1,0,0,0,0,0,0,0,0,0,0,1,0,
	| 0,0,0,0,0,0,0,0,0,0,0,0,0,1,1,
	| 0,0,0,0,0,0,0,0,1,0,0,0,0,0,0,
	| 0,0,0,0,0,0,0,0,0,0,1,1,1,1,0,
	| 0,0,0,0,0,0,0,0,1,1,0,0,0,0,0,
	| 0,0,0,1,0,0,1,1,1,0,0,2,1,0,0,
	| 0,0,0,0,0,0,1,1,0,0,0,0,1,0,1,
	| 0,0,1,1,0,0,0,0,1,0,0,0,1,1,1,
	| 0,0,1,0,0,1,0,1,0,0,1,0,0,2,0,
	| 0,1,1,0,0,0,0,0,1,0,1,1,0,0,1,
	| 0,0,0,0,0,0,0,0,0,0,0,0,0,0,1,
	| 1,0,0,0,0,1,1,1,0,0,1,1,1,0,0,
	| 1,0,0,0,0,0,0,0,2,0,0,1,0,2,1,
	| 0,1,1,0,0,0,0,0,0,0,0,2,1,0,1,
	| 0,0,1,0,0,1,0,0,1,1,0,1,0,0,0,
	| 0,0,2,0,0,1,1,1,0,0,0,1,0,0,0,
	| 0,0,0,0,0,1,0,1,1,0,0,1,0,1,0,
	| 0,1,0,0,0,0,0,1,1,0,0,1,0,0,0,
	| 0,1,0,1,0,1,0,0,2,0,0,0,0,0,0,
	| 0,0,0,0,0,0,0,0,0,0,0,0,0,0,0, |];

% SumOfsreq = 392;

nResources = 21;
mastery = [| false,false,false,false,false,false,false,false,false,false,false,true,false,false,false,
	| false,false,false,false,false,false,false,false,false,false,false,false,true,true,true,
	| true,true,true,false,false,false,false,false,false,false,false,false,false,false,false,
	| false,false,false,false,false,false,false,false,false,false,false,false,false,false,true,
	| false,false,false,false,false,false,true,true,true,false,false,false,false,false,false,
	| false,false,false,true,true,true,false,false,false,false,false,false,false,false,false,
	| false,false,false,false,false,false,true,true,true,false,false,false,false,false,false,
	| false,false,false,false,false,false,true,true,true,false,false,false,false,false,false,
	| false,false,false,false,false,false,false,false,false,true,true,true,true,true,true,
	| false,false,false,false,false,false,false,false,false,false,false,true,false,true,true,
	| false,false,false,false,false,true,false,false,false,false,false,false,false,false,false,
	| false,true,true,false,false,false,true,true,true,false,false,false,false,false,false,
	| false,true,true,false,false,false,false,false,false,false,false,false,false,false,false,
	| false,false,false,false,false,false,false,false,true,false,false,false,false,false,false,
	| false,false,false,false,false,false,false,false,false,false,true,true,false,false,false,
	| false,false,false,false,false,false,false,false,false,true,true,true,false,false,false,
	| false,false,false,false,false,false,false,false,true,false,false,false,false,false,false,
	| false,false,false,false,false,false,false,false,false,false,false,true,false,false,false,
	| false,false,false,false,false,false,false,false,false,false,false,false,true,true,true,
	| false,false,true,false,false,true,false,true,true,false,false,false,false,false,false,
	| false,false,false,false,false,false,false,true,true,false,false,false,false,false,false, |];

nPrecs = 166;
pred = [1,1,1,2,2,2,3,3,3,4,4,4,5,5,5,6,6,6,7,7,8,8,8,9,9,9,10,10,10,11,11,11,12,12,13,13,13,14,14,14,15,16,16,17,17,17,18,19,19,20,20,20,21,21,22,23,23,24,24,24,25,25,25,26,27,28,28,28,29,29,29,30,31,31,32,32,33,33,34,35,35,35,36,36,37,38,38,39,40,40,40,41,41,42,43,43,44,44,45,45,46,46,47,47,48,48,48,49,49,49,50,51,51,52,53,54,54,54,55,55,56,57,58,59,59,59,60,60,61,62,63,64,65,66,66,66,67,68,68,68,69,69,70,71,72,73,73,74,75,76,77,78,79,79,80,81,82,83,84,85,86,87,88,89,90,91];
succ = [2,3,4,10,6,8,25,5,15,90,79,24,19,21,7,18,23,56,9,61,50,77,16,11,12,13,34,59,22,65,42,14,81,30,64,20,48,26,28,85,17,67,56,41,82,44,41,73,47,41,65,32,38,80,29,52,46,57,66,39,27,37,31,66,72,49,36,88,82,43,45,34,33,40,57,62,35,53,88,44,36,63,77,45,63,67,53,46,49,44,69,83,71,71,84,60,45,54,91,70,51,55,69,62,57,51,60,89,67,76,78,76,63,58,55,74,83,56,68,64,72,76,84,82,61,62,73,74,68,79,70,73,80,74,68,86,90,75,91,70,81,88,71,84,75,81,77,75,78,86,78,89,85,80,86,87,83,85,89,87,87,91,90,92,92,92];

nUnrels = 2847;
unpred = [2,2,2,2,2,2,2,2,2,2,2,2,2,2,2,2,2,2,2,2,2,2,2,2,2,2,2,2,2,2,2,2,2,2,2,2,2,2,2,2,3,3,3,3,3,3,3,3,3,3,3,3,3,3,3,3,3,4,4,4,4,4,4,4,4,4,4,4,4,4,4,4,4,4,4,4,4,4,4,4,4,4,4,4,4,4,4,4,4,4,4,4,4,4,4,4,4,4,4,4,4,4,4,4,4,4,4,4,4,4,4,4,4,4,4,4,5,5,5,5,5,5,5,5,5,5,5,5,5,5,5,5,5,5,5,5,5,5,5,5,5,5,5,5,5,5,6,6,6,6,6,6,6,6,6,6,6,6,6,6,6,6,6,6,6,6,6,6,6,6,6,6,6,6,6,6,6,6,6,6,6,6,6,6,6,6,6,6,6,6,6,6,6,6,6,6,6,6,6,6,6,6,6,7,7,7,7,7,7,7,7,7,7,7,7,7,7,7,7,7,7,7,7,7,7,7,7,7,7,7,7,7,7,7,7,7,7,7,7,8,8,8,8,8,8,8,8,8,8,8,8,8,8,8,8,8,8,8,8,8,8,8,8,8,8,8,8,8,8,8,8,8,8,8,8,8,8,8,8,8,8,8,8,8,8,8,8,8,8,8,8,8,8,8,8,8,8,8,8,8,8,8,8,8,8,8,8,8,8,8,8,8,9,9,9,9,9,9,9,9,9,9,9,9,9,9,9,9,9,9,9,9,9,9,9,9,9,9,9,9,9,9,9,9,9,9,9,9,10,10,10,10,10,10,10,10,10,10,10,10,10,10,10,10,10,10,10,10,10,10,10,10,10,10,10,10,10,10,10,10,10,10,10,10,10,10,10,10,10,10,10,10,10,10,10,10,10,10,10,11,11,11,11,11,11,11,11,11,11,11,11,11,11,11,11,11,11,11,11,11,11,11,11,11,11,11,11,11,11,11,11,11,11,11,11,11,11,11,11,11,11,11,11,11,11,11,11,11,11,11,11,11,12,12,12,12,12,12,12,12,12,12,12,12,12,12,12,12,12,12,12,12,12,12,12,12,12,12,12,12,12,12,12,12,12,12,12,12,12,12,12,12,12,12,12,12,12,12,12,12,12,12,12,12,12,12,12,12,12,12,12,12,12,12,12,12,12,12,12,12,12,12,12,12,13,13,13,13,13,13,13,13,13,13,13,13,13,13,13,13,13,13,13,13,13,13,13,13,13,13,13,13,13,13,13,13,13,13,13,13,13,13,13,13,13,13,13,13,13,13,13,13,13,14,14,14,14,14,14,14,14,14,14,14,14,14,14,14,14,14,14,14,14,14,14,14,14,14,14,14,14,14,14,14,14,14,14,14,14,14,14,14,14,14,14,14,14,14,14,14,14,14,14,14,14,14,14,15,15,15,15,15,15,15,15,15,15,15,15,15,15,15,15,15,15,15,15,15,15,15,15,15,15,15,15,15,15,15,15,15,15,15,15,15,15,15,15,15,15,15,15,15,15,15,15,15,15,15,15,15,15,15,15,15,16,16,16,16,16,16,16,16,16,16,16,16,16,16,16,16,16,16,16,16,16,16,16,16,16,16,16,16,16,16,16,16,16,16,16,16,16,16,16,16,16,16,16,16,16,16,16,16,16,16,16,16,16,16,16,16,16,16,16,16,16,16,16,16,16,16,16,16,17,17,17,17,17,17,17,17,17,17,17,17,17,17,17,17,17,17,17,17,17,17,17,17,17,17,17,17,17,17,17,17,17,17,17,17,17,17,17,17,17,17,17,17,17,17,17,17,17,17,17,17,17,17,17,17,18,18,18,18,18,18,18,18,18,18,18,18,18,18,18,18,18,18,18,18,18,18,18,18,18,18,18,18,18,18,18,18,18,18,18,18,18,18,18,18,18,18,18,18,18,18,18,18,18,18,18,18,18,18,18,18,18,18,18,18,18,18,18,18,18,19,19,19,19,19,19,19,19,19,19,19,19,19,19,19,19,19,19,19,19,19,19,19,19,19,19,19,19,19,19,19,19,19,19,19,19,19,19,19,19,19,19,19,19,19,19,19,19,19,19,19,19,19,19,19,19,20,20,20,20,20,20,20,20,20,20,20,20,20,20,20,20,20,20,20,20,20,20,20,20,20,20,20,20,20,20,20,20,20,20,20,20,20,20,20,20,20,20,20,20,20,20,20,20,20,20,20,20,20,20,20,21,21,21,21,21,21,21,21,21,21,21,21,21,21,21,21,21,21,21,21,21,21,21,21,21,21,21,21,21,21,21,21,21,21,21,21,21,21,21,21,21,21,21,21,21,21,21,21,21,21,22,22,22,22,22,22,22,22,22,22,22,22,22,22,22,22,22,22,22,22,22,22,22,22,22,22,22,22,22,22,22,22,22,22,22,22,22,22,22,22,22,22,22,22,22,22,22,22,22,22,23,23,23,23,23,23,23,23,23,23,23,23,23,23,23,23,23,23,23,23,23,23,23,23,23,23,23,23,23,23,23,23,23,23,23,23,23,23,23,23,23,23,23,23,23,23,23,24,24,24,24,24,24,24,24,24,24,24,24,24,24,24,24,24,24,24,24,24,24,24,24,24,24,24,24,24,24,24,24,24,24,24,24,24,24,24,24,24,24,24,24,25,25,25,25,25,25,25,25,25,25,25,25,25,25,25,25,25,25,25,25,25,25,25,25,25,25,25,25,26,26,26,26,26,26,26,26,26,26,26,26,26,26,26,26,26,26,26,26,26,26,26,26,26,26,26,26,26,26,26,26,26,26,26,26,26,26,26,26,26,26,26,26,26,26,26,26,26,26,26,26,26,27,27,27,27,27,27,27,27,27,27,27,27,27,27,27,27,27,27,27,27,27,27,27,27,27,27,27,27,27,27,27,27,27,27,27,27,27,27,27,27,27,27,27,27,27,27,27,27,27,27,27,27,27,27,27,27,27,27,27,27,28,28,28,28,28,28,28,28,28,28,28,28,28,28,28,28,28,28,28,28,28,28,28,28,28,28,28,28,28,28,28,28,28,28,28,28,28,28,28,28,28,28,28,28,28,28,28,29,29,29,29,29,29,29,29,29,29,29,29,29,29,29,29,29,29,29,29,29,29,29,29,29,29,29,29,29,29,29,29,29,29,29,29,29,29,29,29,29,29,29,29,30,30,30,30,30,30,30,30,30,30,30,30,30,30,30,30,30,30,30,30,30,30,30,30,30,30,30,30,30,30,30,30,30,30,30,30,30,30,30,30,30,30,30,30,30,30,30,30,30,30,30,30,30,30,30,30,30,30,31,31,31,31,31,31,31,31,31,31,31,31,31,31,31,31,31,31,31,31,31,31,31,31,31,32,32,32,32,32,32,32,32,32,32,32,32,32,32,32,32,32,32,32,32,32,32,32,32,32,32,32,32,32,32,32,32,32,32,32,32,32,32,32,32,32,32,32,32,32,32,32,32,32,32,33,33,33,33,33,33,33,33,33,33,33,33,33,33,33,33,33,33,33,33,33,33,33,33,33,33,33,33,33,33,33,33,34,34,34,34,34,34,34,34,34,34,34,34,34,34,34,34,34,34,34,34,34,34,34,34,34,34,34,34,34,34,34,34,34,34,34,34,34,34,34,34,34,34,34,34,34,34,34,34,34,34,34,34,34,34,34,35,35,35,35,35,35,35,35,35,35,35,35,35,35,35,35,35,35,35,35,35,35,35,35,35,35,35,35,35,35,35,35,35,35,35,35,35,36,36,36,36,36,36,36,36,36,36,36,36,36,36,36,36,36,36,36,36,36,36,36,36,36,36,36,36,36,36,36,36,36,36,36,36,36,36,36,36,36,36,36,36,36,36,36,37,37,37,37,37,37,37,37,37,37,37,37,37,37,37,37,37,37,37,37,37,37,37,37,37,37,37,37,37,37,37,37,37,37,37,37,37,37,37,37,37,37,37,37,37,37,37,37,37,38,38,38,38,38,38,38,38,38,38,38,38,38,38,38,38,38,38,38,38,38,38,38,38,38,38,38,38,38,38,38,38,38,38,38,38,39,39,39,39,39,39,39,39,39,39,39,39,39,39,39,39,39,39,39,39,39,39,39,39,39,39,39,39,39,39,39,39,39,40,40,40,40,40,40,40,40,40,40,40,40,40,40,40,40,40,40,40,40,40,40,40,40,40,40,40,41,41,41,41,41,41,41,41,41,41,41,41,41,41,41,41,41,41,41,41,41,41,41,41,41,41,41,41,41,41,41,41,41,41,41,41,41,41,41,41,41,41,41,42,42,42,42,42,42,42,42,42,42,42,42,42,42,42,42,42,42,42,42,42,42,42,42,42,42,42,42,42,42,42,42,42,42,42,42,42,42,42,42,42,42,42,42,42,42,43,43,43,43,43,43,43,43,43,43,43,43,43,43,43,43,43,43,43,43,43,43,43,43,43,43,43,43,43,43,43,43,43,43,43,43,43,44,44,44,44,44,44,44,44,44,44,44,44,44,44,44,44,44,44,44,44,44,44,44,44,44,44,44,44,44,44,44,44,45,45,45,45,45,45,45,45,45,45,45,45,45,45,45,45,45,45,45,45,45,45,45,45,45,45,45,45,45,45,45,45,45,45,45,45,45,45,45,45,45,46,46,46,46,46,46,46,46,46,46,46,46,46,46,46,46,46,46,46,46,46,46,46,46,46,46,46,47,47,47,47,47,47,47,47,47,47,47,47,47,47,47,47,47,47,47,47,47,47,47,47,47,47,47,47,47,47,47,47,47,48,48,48,48,48,48,48,48,48,48,48,48,48,48,48,48,48,48,48,48,48,48,48,48,48,49,49,49,49,49,49,49,49,49,49,49,49,49,49,49,49,49,49,49,49,49,49,49,49,49,49,49,49,49,49,49,49,49,49,49,50,50,50,50,50,50,50,50,50,50,50,50,50,50,50,50,50,50,50,50,50,50,50,50,50,50,50,50,50,50,50,50,50,50,50,50,50,50,50,51,51,51,51,51,51,51,51,51,51,51,51,51,51,51,51,51,51,51,51,51,51,51,51,51,51,51,51,51,51,51,52,52,52,52,52,52,52,52,52,52,52,52,52,52,52,52,52,52,52,52,52,52,52,52,52,52,52,52,52,52,52,52,52,52,52,52,53,53,53,53,53,53,53,53,53,53,53,53,53,53,53,53,53,53,53,53,53,53,53,53,54,54,54,54,54,54,54,54,54,54,54,54,54,54,54,54,54,54,54,54,54,54,54,54,54,54,54,55,55,55,55,55,55,55,55,55,55,55,55,55,55,55,55,55,55,55,55,55,55,55,56,56,56,56,56,56,56,56,56,56,56,56,56,56,56,56,56,56,56,56,56,56,56,56,56,56,56,56,56,56,56,57,57,57,57,57,57,57,57,57,57,57,57,57,57,57,57,57,57,57,57,57,57,57,57,57,57,57,57,57,57,58,58,58,58,58,58,58,58,58,58,58,58,58,58,58,58,58,58,58,58,58,58,58,58,58,58,58,58,58,58,58,59,59,59,59,59,59,59,59,59,59,59,59,59,59,59,60,60,60,60,60,60,60,60,60,60,60,60,60,60,60,60,60,60,60,60,60,60,61,61,61,61,61,61,61,61,61,61,61,61,61,61,61,61,61,61,61,61,61,61,62,62,62,62,62,62,62,62,62,62,62,62,62,62,62,62,62,62,62,62,62,62,62,63,63,63,63,63,63,63,63,63,63,63,63,63,63,63,63,63,63,63,63,63,63,63,63,64,64,64,64,64,64,64,64,64,64,64,64,64,64,64,64,64,64,64,64,65,65,65,65,65,65,65,65,65,65,65,65,65,65,65,65,65,65,65,65,65,65,66,66,66,66,66,66,66,66,66,66,66,66,66,66,67,67,67,67,67,67,67,67,67,67,67,67,67,67,67,67,67,67,67,67,67,67,67,68,68,68,68,68,68,68,68,68,68,68,68,68,68,68,68,69,69,69,69,69,69,69,69,69,69,69,69,69,69,69,69,69,70,70,70,70,70,70,70,70,70,70,70,70,70,70,70,70,70,70,71,71,71,71,71,71,71,71,71,71,71,71,71,71,71,71,71,71,72,72,72,72,72,72,72,72,72,72,72,72,72,72,72,72,73,73,73,73,73,73,73,73,73,73,73,73,74,74,74,74,74,74,74,74,74,74,74,74,74,74,75,75,75,75,75,75,75,75,75,75,75,75,75,75,76,76,76,76,76,76,76,76,76,76,76,76,77,77,77,77,77,77,77,77,77,77,77,77,78,78,78,78,78,78,78,78,78,78,78,78,79,79,79,79,79,79,79,80,80,80,80,80,80,80,80,81,81,81,81,81,81,81,81,82,82,82,82,82,83,83,83,83,83,84,84,84,84,84,84,85,85,85,85,86,86,86,87,87,87,88,88,89,89,90];
unsucc = [3,4,5,7,9,11,12,13,14,15,17,19,20,21,24,25,26,27,28,30,31,32,33,35,36,37,38,39,40,42,44,47,48,49,53,54,57,65,66,69,4,6,8,10,16,18,22,23,24,29,39,43,46,50,52,58,59,5,6,7,8,9,10,11,12,13,14,15,16,17,18,19,20,21,22,23,25,26,27,28,29,30,31,32,33,34,35,36,37,38,40,41,42,43,44,45,47,48,49,50,52,53,54,56,58,59,60,61,62,65,67,69,72,82,83,88,6,8,10,15,16,17,18,22,23,24,25,27,29,31,33,35,37,39,40,43,44,46,50,52,54,56,58,59,72,82,7,8,9,10,11,12,13,14,15,16,17,19,20,21,22,24,25,26,27,28,29,30,31,32,33,34,35,36,37,38,39,40,42,43,44,45,47,48,49,50,53,54,57,59,60,61,62,65,66,67,69,74,79,80,82,88,90,8,10,15,16,17,18,19,21,22,23,24,25,27,29,31,33,35,37,38,39,40,43,44,46,47,50,52,53,54,55,56,58,59,69,72,82,9,10,11,12,13,14,15,17,18,19,20,21,22,23,24,25,26,27,28,29,30,31,32,33,34,35,36,37,38,39,40,41,42,43,44,45,46,47,48,49,51,52,53,54,55,57,58,59,60,61,62,63,64,65,66,68,69,70,71,73,74,76,79,80,81,82,83,84,85,86,87,88,91,10,15,16,17,18,19,21,22,23,24,25,27,29,31,33,35,37,38,39,40,43,44,46,47,50,52,53,54,55,56,58,59,61,69,72,82,11,12,13,14,15,16,17,18,19,20,21,23,24,25,26,27,28,30,31,32,33,35,36,37,38,39,40,41,42,44,46,47,48,49,50,51,52,53,54,55,56,57,58,63,64,65,66,67,69,72,76,12,13,15,16,17,18,19,20,21,22,23,24,25,27,29,30,31,32,33,34,35,37,38,39,40,41,43,44,46,47,48,50,51,52,53,54,55,56,57,58,59,60,61,62,63,64,69,72,73,79,81,82,83,13,14,15,16,17,18,19,20,21,22,23,24,25,26,27,28,29,31,32,33,35,36,37,38,39,40,41,42,43,44,45,46,47,48,49,50,51,52,53,54,55,56,57,58,59,60,61,62,63,64,65,66,67,68,69,70,71,72,73,74,75,76,77,78,79,80,82,83,84,85,86,89,14,15,16,17,18,19,21,22,23,24,25,26,27,28,29,30,31,33,34,35,36,37,38,39,40,42,43,44,45,46,47,49,50,52,53,54,55,56,58,59,61,66,67,68,69,72,82,88,90,15,16,17,18,19,20,21,22,23,24,25,27,29,30,31,32,33,34,35,37,38,39,40,41,42,43,44,46,47,48,50,51,52,53,54,55,56,57,58,59,60,61,62,63,64,65,69,72,73,79,80,81,82,83,16,18,19,20,21,22,23,24,25,26,27,28,29,30,31,32,33,34,35,36,37,38,39,40,42,43,46,47,48,49,50,51,52,53,55,57,58,59,60,61,62,63,64,65,66,67,68,69,73,76,77,79,80,81,86,88,90,17,18,19,20,21,22,23,24,25,26,27,28,29,30,31,32,33,34,35,36,37,38,39,40,41,42,43,44,45,46,47,48,49,50,51,52,53,54,55,57,58,59,60,61,62,63,64,65,66,68,69,70,71,73,74,76,77,79,80,81,82,83,84,85,86,87,88,91,18,19,20,21,22,23,24,25,26,27,28,29,30,31,32,33,34,35,36,37,38,39,40,42,43,46,47,48,49,50,51,52,53,55,57,58,59,60,61,62,63,64,65,66,67,68,69,73,76,77,79,80,81,86,88,90,19,20,21,22,23,24,25,26,27,28,29,30,31,32,33,34,35,36,37,38,39,40,42,43,44,45,46,47,48,49,50,51,52,53,54,55,56,57,58,59,60,61,62,63,64,65,66,67,68,69,70,72,73,74,75,76,77,78,79,80,81,82,86,88,90,20,21,22,23,24,25,26,27,28,29,30,31,32,33,34,35,36,37,38,39,40,41,42,43,44,45,46,48,49,50,51,52,53,54,55,56,57,58,59,60,61,63,64,65,66,67,68,70,71,72,74,75,76,82,83,84,21,22,23,24,25,26,27,28,29,30,31,33,34,35,36,37,38,39,40,42,43,44,45,46,47,48,49,50,51,52,53,54,55,56,58,59,60,61,63,64,66,67,68,69,70,72,73,74,75,77,78,81,82,88,90,22,23,24,25,26,27,28,29,30,31,32,33,34,35,36,37,39,40,41,42,43,44,45,46,47,48,49,50,51,52,54,56,57,58,59,60,61,62,63,65,66,69,72,74,76,79,82,83,85,88,23,24,25,26,27,28,30,31,32,33,34,35,36,37,38,39,40,41,42,44,46,47,48,49,50,51,52,53,54,55,56,57,58,59,61,62,63,64,65,66,67,68,69,72,76,79,80,86,88,90,24,25,26,27,28,29,30,31,32,33,34,35,36,37,38,39,40,41,42,43,44,45,47,48,49,50,53,54,56,57,59,60,61,62,65,66,67,69,72,74,79,80,82,83,85,88,90,25,26,27,28,29,30,31,32,33,34,35,36,37,38,40,41,42,43,44,45,47,48,49,50,52,53,54,56,58,59,60,61,62,65,67,69,72,79,80,82,83,85,88,90,26,28,29,30,32,34,38,39,41,42,43,46,47,48,50,51,52,57,58,59,60,61,62,65,66,79,80,82,27,28,29,30,31,32,33,34,35,36,37,38,39,40,41,42,43,44,45,46,47,48,49,50,51,52,53,54,55,56,57,58,59,60,61,62,63,64,65,67,69,72,73,76,77,79,80,81,82,83,85,88,90,28,29,30,31,32,33,34,35,36,37,38,39,40,41,42,43,44,45,46,47,48,49,50,51,52,53,54,55,56,57,58,59,60,61,62,63,64,65,66,67,68,69,70,71,73,74,76,77,79,80,81,82,83,84,85,86,87,88,90,91,29,30,31,32,33,34,35,37,38,39,40,41,42,43,44,46,47,48,50,51,52,53,54,55,56,57,58,59,60,61,62,63,64,65,66,68,69,72,73,74,75,79,80,81,82,83,85,30,31,32,33,34,35,36,37,38,39,40,41,42,44,46,47,48,49,50,51,52,53,54,55,56,57,58,59,61,62,63,64,65,66,67,68,69,72,76,79,80,86,88,90,31,32,33,35,36,37,38,39,40,41,42,43,44,45,46,47,48,49,50,51,52,53,54,55,56,57,58,59,60,61,62,63,64,65,66,67,68,69,70,71,72,73,74,75,76,77,78,79,80,81,82,83,84,85,86,87,89,91,32,34,37,38,39,41,42,43,46,47,48,50,51,52,57,58,59,60,61,62,65,66,79,80,82,33,34,35,36,37,38,39,40,41,42,43,44,45,46,47,48,49,50,51,52,53,54,55,56,58,59,60,61,63,64,65,66,67,68,69,70,71,72,73,74,75,77,78,81,82,83,84,88,89,90,34,37,38,39,40,41,42,43,46,47,48,49,50,51,52,57,58,59,60,61,62,65,66,67,69,76,79,80,82,86,88,90,35,36,37,38,39,40,41,42,43,44,45,46,47,48,49,50,51,52,53,54,55,56,57,58,59,60,61,62,63,64,65,66,67,68,69,70,71,72,73,74,75,76,77,78,79,80,81,82,83,84,85,86,87,89,91,37,38,39,40,41,42,43,46,47,48,49,50,51,52,53,55,57,58,59,60,61,62,64,65,66,67,68,69,73,76,79,80,81,82,86,88,90,37,38,39,40,41,42,43,44,46,47,48,49,50,51,52,53,54,55,56,57,58,59,60,61,62,63,64,65,66,67,68,69,72,73,74,75,76,79,80,81,82,83,85,86,87,88,90,38,39,40,41,42,43,44,45,46,47,48,49,50,51,52,53,54,55,56,57,58,59,60,61,62,64,65,66,67,68,69,72,73,74,75,76,77,78,79,80,81,82,83,85,86,87,88,90,91,39,40,41,42,43,44,45,46,47,48,49,50,51,52,54,56,57,58,59,60,61,62,63,65,66,69,72,74,76,79,80,82,83,85,86,88,40,41,42,43,44,45,47,48,49,50,52,53,54,56,57,58,59,60,61,62,65,66,67,69,72,74,79,80,82,83,85,88,90,41,42,43,46,47,48,50,51,52,53,55,57,58,59,60,61,62,63,64,65,66,68,73,77,79,80,82,42,43,44,45,46,47,48,49,50,51,52,53,54,55,56,57,58,59,60,61,62,63,64,65,66,67,68,69,70,72,73,74,75,76,77,78,79,80,81,82,86,88,90,43,44,45,46,47,48,49,50,51,52,53,54,55,56,57,58,59,60,61,62,63,64,65,66,67,68,69,70,72,73,74,75,76,77,78,79,80,81,82,83,85,86,87,88,90,91,44,45,46,47,48,49,50,51,52,53,54,55,56,57,58,59,61,62,63,64,65,66,67,68,69,70,71,72,76,79,80,82,83,85,86,88,90,46,47,48,49,50,51,52,53,55,57,58,59,60,61,62,63,64,65,66,67,68,69,73,76,77,79,80,81,82,86,88,90,46,47,48,49,50,51,52,53,54,55,56,57,58,59,60,61,62,63,64,65,66,67,68,69,72,73,74,75,76,77,78,79,80,81,82,83,85,86,87,88,90,47,48,49,50,52,53,54,56,57,58,59,60,61,62,65,66,67,69,72,74,79,80,82,83,85,88,90,48,49,50,51,52,53,54,55,56,57,58,59,60,61,63,64,65,66,67,68,70,71,72,73,74,75,76,77,78,82,83,84,89,49,50,52,53,54,55,56,58,59,61,62,64,65,66,67,68,69,72,79,80,82,83,85,88,90,50,51,52,53,54,55,56,57,58,59,60,61,62,63,64,65,66,68,69,70,71,72,73,74,75,77,78,79,80,81,82,83,84,85,88,51,52,53,54,55,56,57,58,59,60,61,62,63,64,65,66,67,68,69,70,71,72,73,74,75,76,77,79,80,81,82,83,84,85,86,87,88,90,91,52,53,54,55,56,57,58,59,60,61,62,64,65,66,67,68,69,72,73,74,75,77,78,79,80,81,82,83,85,88,90,53,54,55,56,57,59,60,61,62,63,64,65,66,67,68,69,70,71,72,73,74,75,76,77,78,79,80,81,82,83,85,86,87,88,90,91,54,56,57,58,59,60,61,62,63,65,66,67,69,72,74,76,79,80,82,83,85,86,88,90,55,57,58,59,60,61,62,63,64,65,66,67,68,69,70,71,73,76,77,79,80,81,82,84,86,88,90,56,57,58,59,60,61,62,63,65,66,67,69,72,74,76,79,80,82,83,85,86,88,90,57,58,59,60,61,62,63,64,65,66,67,68,69,70,71,73,74,76,77,79,80,81,82,83,84,85,86,87,88,90,91,58,59,60,61,62,63,64,65,66,67,68,69,70,71,72,73,74,75,77,78,79,80,81,82,83,84,85,88,89,90,59,60,61,62,63,64,65,66,67,68,69,70,71,72,73,74,75,76,77,78,79,80,81,82,83,85,86,87,88,90,91,60,63,64,65,66,67,69,72,73,74,76,77,81,88,90,61,62,63,64,65,66,67,68,69,70,71,72,76,79,80,82,83,84,85,86,88,90,62,63,64,65,66,67,69,72,73,74,76,77,79,80,81,82,83,85,86,87,88,90,63,64,65,66,67,68,69,70,71,72,73,74,75,76,77,78,81,82,83,84,88,89,90,64,65,66,67,68,69,72,73,74,75,76,77,78,79,80,81,82,83,85,86,87,88,90,91,65,66,67,68,69,70,71,72,74,75,76,79,80,82,83,84,85,86,88,90,66,67,68,69,70,71,72,73,74,75,76,77,78,79,81,82,83,84,85,88,89,90,67,69,72,73,76,77,79,80,81,82,83,85,88,90,68,69,70,71,72,73,74,75,76,77,78,79,80,81,82,83,84,85,86,87,88,89,91,69,72,73,74,76,77,79,80,81,82,83,85,86,87,88,90,70,71,72,73,74,75,76,77,78,79,80,82,83,84,85,86,89,72,73,74,75,76,77,78,79,80,81,82,83,85,86,87,88,90,91,72,73,74,75,76,77,78,79,80,81,82,83,85,86,87,88,90,91,73,74,76,77,79,80,81,82,83,84,85,86,87,88,90,91,74,75,76,79,80,82,83,84,85,86,88,90,76,77,79,80,81,82,83,84,85,86,87,88,90,91,76,77,79,80,81,82,83,84,85,86,87,88,90,91,77,78,79,80,81,82,83,84,85,88,89,90,79,80,81,82,83,84,85,86,87,88,90,91,79,80,81,82,83,84,85,86,87,88,90,91,81,82,83,84,88,89,90,81,82,83,84,85,88,89,90,82,83,84,85,86,88,89,90,84,86,88,89,90,84,86,88,89,90,85,86,87,88,90,91,86,88,89,90,88,89,90,88,89,90,89,91,90,91,91];

USEFUL_RES = [{},
	{2,4,6,9,10,11,15,16,19,20},
	{5,6,7,8,9,12,14,15,16,17,20,21},
	{2,3,5,7,8,9,12,13,14,17,19,20,21},
	{2,5,7,8,9,10,12,14,17,19,20,21},
	{1,2,5,6,7,8,9,10,12,14,15,16,17,18,19,20,21},
	{6},
	{2,5,7,8,9,10,12,19,20,21},
	{2,9,19},
	{2,5,6,7,8,9,11,12,16,19,20,21},
	{1,2,6,9,10,11,15,16,18,19,20},
	{1,2,3,5,7,8,9,10,12,13,14,15,16,17,18,19,20,21},
	{1,2,3,4,5,6,7,8,9,10,11,12,13,14,15,16,17,18,19,20,21},
	{5,6,7,8,11,12,14,17,20,21},
	{5,7,8,12,14,17,20,21},
	{3,5,6,7,8,9,11,12,13,15,16,20,21},
	{1,6,9,10,11,15,16,18,20},
	{1,2,9,10,15,16,18,19},
	{1,3,5,7,8,9,10,12,13,14,15,16,17,18,20,21},
	{2,5,7,8,9,12,14,15,16,17,19,20,21},
	{1,2,3,5,7,8,9,10,12,13,14,15,16,17,18,19,20,21},
	{5,6,7,8,11,12,14,17,20,21},
	{1,5,6,7,8,9,10,11,12,14,15,16,17,18,20,21},
	{5,6,7,8,9,11,12,16,20,21},
	{2,3,5,7,8,9,10,12,13,16,19,20,21},
	{1,2,3,4,5,7,8,9,10,12,13,14,15,16,17,18,19,20,21},
	{1,2,5,7,8,9,10,12,15,16,18,19},
	{1,2,3,4,6,9,10,11,12,13,15,16,18,19,20},
	{1,2,3,4,5,6,7,8,9,10,12,13,14,15,16,17,18,19,20,21},
	{3,5,6,7,8,11,12,13,20,21},
	{3,6,9,12,13,16},
	{2,3,4,5,7,8,9,10,12,13,14,17,19,20,21},
	{1,5,7,8,9,10,12,14,15,16,17,18,20,21},
	{2,3,4,5,6,7,8,9,10,11,12,14,17,19,20,21},
	{2,3,9,12,13,19,20},
	{1,3,5,7,8,9,10,12,13,14,15,16,17,18,20,21},
	{2,3,4,6,9,10,11,12,13,19,20},
	{1,5,7,8,9,10,12,14,15,16,17,18,20,21},
	{1,5,7,8,9,10,12,14,15,16,17,18,20,21},
	{1,9,10,15,16,18},
	{2,4,5,6,7,8,9,10,11,12,14,17,19,20,21},
	{2,4,9,10,19},
	{5,6,7,8,12,20,21},
	{1,2,3,5,7,8,9,10,12,13,15,16,18,19,20,21},
	{5,7,8,12,20,21},
	{3,5,7,8,9,12,13,14,15,16,17,20,21},
	{1,2,3,5,7,8,9,10,12,13,14,15,16,17,18,19,20,21},
	{1,5,6,7,8,9,10,11,12,14,15,16,17,18,20,21},
	{1,2,4,5,6,7,8,9,10,11,12,14,15,16,17,18,19,20,21},
	{2,4,5,7,8,9,10,12,14,17,19,20,21},
	{1,2,5,7,8,9,10,12,14,15,16,17,18,19,20,21},
	{1,3,5,7,8,9,10,12,13,14,15,16,17,18,20,21},
	{1,5,6,7,8,9,10,11,12,15,16,18,20,21},
	{1,5,6,7,8,9,10,11,12,14,15,16,17,18,20,21},
	{1,2,5,6,7,8,9,10,12,14,15,16,17,18,19,20,21},
	{2,3,6,9,11,12,13,19,20},
	{1,3,5,7,8,9,10,12,13,15,16,18,20,21},
	{2,4,5,7,8,9,10,12,14,17,19,20,21},
	{3,5,6,7,8,11,12,13,14,17,20,21},
	{1,5,7,8,9,10,12,15,16,18,20,21},
	{1,2,3,4,5,6,7,8,9,10,12,13,14,15,16,17,18,19,20,21},
	{1,3,5,7,8,9,10,12,13,14,15,16,17,18,20,21},
	{1,2,9,10,15,16,18,19},
	{2,4,5,7,8,9,10,12,14,17,19,20,21},
	{2,3,5,7,8,9,12,13,16,19,20,21},
	{1,2,3,4,5,7,8,9,10,12,13,14,15,16,17,18,19,20,21},
	{1,3,5,6,7,8,9,10,11,12,13,14,15,16,17,18,20,21},
	{5,6,7,8,11,12,14,17,20,21},
	{1,2,4,5,7,8,9,10,12,14,15,16,17,18,19,20,21},
	{3,12,13,20},
	{1,2,3,5,7,8,9,10,12,13,14,15,16,17,18,19,20,21},
	{2,5,7,8,9,10,12,14,17,19,20,21},
	{2,3,9,10,12,13,19,20},
	{2,4,9,10,19},
	{5,7,8,12,14,17,20,21},
	{1,2,9,10,15,16,18,19},
	{5,7,8,9,12,14,16,17,20,21},
	{1,2,5,6,7,8,9,10,12,14,15,16,17,18,19,20,21},
	{2,4,5,7,8,9,10,12,19,20,21},
	{2,3,4,5,6,7,8,9,10,12,13,14,17,19,20,21},
	{2,3,5,6,7,8,9,10,11,12,13,15,16,19,20,21},
	{1,2,3,4,5,7,8,9,10,12,13,14,15,16,17,18,19,20,21},
	{2,4,9,10,19},
	{1,2,3,5,6,7,8,9,10,11,12,15,16,18,19,20,21},
	{1,2,3,4,5,7,8,9,10,12,14,15,16,17,18,19,20,21},
	{1,2,3,4,9,10,12,13,15,16,18,19,20},
	{1,3,5,6,7,8,9,10,11,12,13,14,15,16,17,18,20,21},
	{1,3,5,6,7,8,9,10,11,12,13,15,16,18,20,21},
	{1,2,5,6,7,8,9,10,11,12,14,15,16,17,18,19,20,21},
	{1,3,5,7,8,9,10,12,13,14,15,16,17,18,20,21},
	{3,5,6,7,8,11,12,13,14,17,20,21},
	{}];

POTENTIAL_ACT = [{6,11,12,13,17,18,19,21,23,26,27,28,29,33,36,38,39,40,44,47,48,49,51,52,53,54,55,57,60,61,62,63,66,67,69,71,76,78,82,84,85,86,87,88,89,90},
	{2,4,5,6,8,9,10,11,12,13,18,20,21,25,26,27,28,29,32,34,35,37,41,42,44,47,49,50,51,55,56,58,61,63,64,65,66,69,71,72,73,74,76,78,79,80,81,82,83,84,85,86,89},
	{4,12,13,16,19,21,25,26,28,29,30,31,32,34,35,36,37,44,46,47,52,56,57,59,61,62,65,66,67,70,71,73,80,81,82,84,85,86,87,88,90,91},
	{2,13,26,28,29,32,34,37,41,42,49,50,58,61,64,66,69,74,79,80,82,83,85,86},
	{3,4,5,6,8,10,12,13,14,15,16,19,20,21,22,23,24,25,26,27,29,30,32,33,34,36,38,39,41,43,44,45,46,47,48,49,50,51,52,53,54,55,57,58,59,60,61,62,64,65,66,67,68,69,71,72,75,77,78,79,80,81,82,84,85,87,88,89,90,91},
	{2,3,6,7,10,11,13,14,16,17,22,23,24,28,29,30,31,34,37,41,43,48,49,53,54,55,56,59,61,67,68,78,80,81,84,87,88,89,91},
	{3,4,5,6,8,10,12,13,14,15,16,19,20,21,22,23,24,25,26,27,29,30,32,33,34,36,38,39,41,43,44,45,46,47,48,49,50,51,52,53,54,55,57,58,59,60,61,62,64,65,66,67,68,69,71,72,75,77,78,79,80,81,82,84,85,87,88,89,90,91},
	{3,4,5,6,8,10,12,13,14,15,16,19,20,21,22,23,24,25,26,27,29,30,32,33,34,36,38,39,41,43,44,45,46,47,48,49,50,51,52,53,54,55,57,58,59,60,61,62,64,65,66,67,68,69,71,72,75,77,78,79,80,81,82,84,85,87,88,89,90,91},
	{2,3,4,5,6,8,9,10,11,12,13,16,17,18,19,20,21,23,24,25,26,27,28,29,31,32,33,34,35,36,37,38,39,40,41,42,44,46,47,48,49,50,51,52,53,54,55,56,57,58,60,61,62,63,64,65,66,67,69,71,72,73,74,76,77,78,79,80,81,82,83,84,85,86,87,88,89,90},
	{2,5,6,8,11,12,13,17,18,19,21,23,25,26,27,28,29,32,33,34,36,37,38,39,40,41,42,44,47,48,49,50,51,52,53,54,55,57,58,60,61,62,63,64,66,67,69,71,72,73,74,76,78,79,80,81,82,83,84,85,86,87,88,89,90},
	{2,10,11,13,14,16,17,22,23,24,28,30,34,37,41,48,49,53,54,56,59,67,68,81,84,87,88,89,91},
	{3,4,5,6,8,10,12,13,14,15,16,19,20,21,22,23,24,25,26,27,28,29,30,31,32,33,34,35,36,37,38,39,41,43,44,45,46,47,48,49,50,51,52,53,54,55,56,57,58,59,60,61,62,64,65,66,67,68,69,70,71,72,73,75,77,78,79,80,81,82,84,85,86,87,88,89,90,91},
	{4,12,13,16,19,21,25,26,28,29,30,31,32,35,36,37,44,46,47,52,56,57,59,61,62,65,66,67,70,71,73,80,81,82,86,87,88,90,91},
	{3,4,5,6,12,13,14,15,19,20,21,22,23,26,29,32,33,34,36,38,39,41,46,47,48,49,50,51,52,54,55,58,59,61,62,64,66,67,68,69,71,72,75,77,78,80,82,85,87,89,90,91},
	{2,3,6,11,12,13,16,17,18,19,20,21,23,26,27,28,29,33,36,38,39,40,44,46,47,48,49,51,52,53,54,55,57,60,61,62,63,66,67,69,71,76,78,81,82,84,85,86,87,88,89,90},
	{2,3,6,10,11,12,13,16,17,18,19,20,21,23,24,25,26,27,28,29,31,33,36,38,39,40,44,46,47,48,49,51,52,53,54,55,57,60,61,62,63,65,66,67,69,71,76,77,78,81,82,84,85,86,87,88,89,90},
	{3,4,5,6,12,13,14,15,19,20,21,22,23,26,29,32,33,34,36,38,39,41,46,47,48,49,50,51,52,54,55,58,59,61,62,64,66,67,68,69,71,72,75,77,78,80,82,85,87,89,90,91},
	{6,11,12,13,17,18,19,21,23,26,27,28,29,33,36,38,39,40,44,47,48,49,51,52,53,54,55,57,60,61,62,63,66,67,69,71,76,78,82,84,85,86,87,88,89,90},
	{2,4,5,6,8,9,10,11,12,13,18,20,21,25,26,27,28,29,32,34,35,37,41,42,44,47,49,50,51,55,56,58,61,63,64,65,66,69,71,72,73,74,76,78,79,80,81,82,83,84,85,86,89},
	{2,3,4,5,6,8,10,11,12,13,14,15,16,17,19,20,21,22,23,24,25,26,28,29,30,32,33,34,35,36,37,38,39,41,43,44,45,46,47,48,49,50,51,52,53,54,55,56,57,58,59,60,61,62,64,65,66,67,68,69,70,71,72,73,75,77,78,79,80,81,82,84,85,86,87,88,89,90,91},
	{3,4,5,6,8,10,12,13,14,15,16,19,20,21,22,23,24,25,26,29,30,32,33,34,36,38,39,41,43,44,45,46,47,48,49,50,51,52,53,54,55,57,58,59,60,61,62,64,65,66,67,68,69,71,72,75,77,78,79,80,81,82,84,85,87,88,89,90,91}];
